p cnf 965 2479
51 -2 -699 0
-51 2 0
-51 699 0
52 -51 -3 0
-52 51 0
-52 3 0
53 -5 -4 0
-53 5 0
-53 4 0
54 -53 -6 0
-54 53 0
-54 6 0
55 -700 -701 0
-55 700 0
-55 701 0
56 -702 -7 0
-56 702 0
-56 7 0
57 -56 -9 0
-57 56 0
-57 9 0
58 -703 -55 0
-58 703 0
-58 55 0
59 -11 -10 0
-59 11 0
-59 10 0
60 -59 -704 0
-60 59 0
-60 704 0
61 -705 -58 0
-61 705 0
-61 58 0
62 -13 -706 0
-62 13 0
-62 706 0
63 -62 -707 0
-63 62 0
-63 707 0
64 -708 -61 0
-64 708 0
-64 61 0
65 -709 -15 0
-65 709 0
-65 15 0
66 -65 -12 0
-66 65 0
-66 12 0
67 -710 -64 0
-67 710 0
-67 64 0
68 -711 -17 0
-68 711 0
-68 17 0
69 -68 -19 0
-69 68 0
-69 19 0
70 -712 -67 0
-70 712 0
-70 67 0
71 -20 -713 0
-71 20 0
-71 713 0
72 -71 -714 0
-72 71 0
-72 714 0
73 -715 -70 0
-73 715 0
-73 70 0
74 -22 -21 0
-74 22 0
-74 21 0
75 -74 -19 0
-75 74 0
-75 19 0
76 -716 -73 0
-76 716 0
-76 73 0
77 -717 -706 0
-77 717 0
-77 706 0
78 -77 -718 0
-78 77 0
-78 718 0
79 -719 -76 0
-79 719 0
-79 76 0
80 -25 -713 0
-80 25 0
-80 713 0
81 -80 -709 0
-81 80 0
-81 709 0
82 -720 -79 0
-82 720 0
-82 79 0
83 -721 -17 0
-83 721 0
-83 17 0
84 -83 -19 0
-84 83 0
-84 19 0
85 -722 -82 0
-85 722 0
-85 82 0
86 -27 -723 0
-86 27 0
-86 723 0
87 -86 -724 0
-87 86 0
-87 724 0
88 -725 -85 0
-88 725 0
-88 85 0
89 -726 -721 0
-89 726 0
-89 721 0
90 -89 -29 0
-90 89 0
-90 29 0
91 -727 -88 0
-91 727 0
-91 88 0
92 -31 -30 0
-92 31 0
-92 30 0
93 -92 -728 0
-93 92 0
-93 728 0
94 -729 -91 0
-94 729 0
-94 91 0
95 -32 -713 0
-95 32 0
-95 713 0
96 -95 -18 0
-96 95 0
-96 18 0
97 -730 -94 0
-97 730 0
-97 94 0
98 -731 -4 0
-98 731 0
-98 4 0
99 -98 -34 0
-99 98 0
-99 34 0
100 -732 -97 0
-100 732 0
-100 97 0
101 -733 -734 0
-101 733 0
-101 734 0
102 -101 -707 0
-102 101 0
-102 707 0
103 -735 -100 0
-103 735 0
-103 100 0
104 -736 -713 0
-104 736 0
-104 713 0
105 -104 -737 0
-105 104 0
-105 737 0
106 -738 -103 0
-106 738 0
-106 103 0
107 -739 -20 0
-107 739 0
-107 20 0
108 -107 -38 0
-108 107 0
-108 38 0
109 -740 -106 0
-109 740 0
-109 106 0
110 -39 -717 0
-110 39 0
-110 717 0
111 -110 -5 0
-111 110 0
-111 5 0
112 -741 -109 0
-112 741 0
-112 109 0
113 -40 -8 0
-113 40 0
-113 8 0
114 -113 -9 0
-114 113 0
-114 9 0
115 -742 -112 0
-115 742 0
-115 112 0
116 -41 -23 0
-116 41 0
-116 23 0
117 -116 -704 0
-117 116 0
-117 704 0
118 -743 -115 0
-118 743 0
-118 115 0
119 -35 -724 0
-119 35 0
-119 724 0
120 -119 -13 0
-120 119 0
-120 13 0
121 -744 -118 0
-121 744 0
-121 118 0
122 -734 -745 0
-122 734 0
-122 745 0
123 -122 -14 0
-123 122 0
-123 14 0
124 -746 -121 0
-124 746 0
-124 121 0
125 -30 -714 0
-125 30 0
-125 714 0
126 -125 -19 0
-126 125 0
-126 19 0
127 -747 -124 0
-127 747 0
-127 124 0
128 -32 -702 0
-128 32 0
-128 702 0
129 -128 -9 0
-129 128 0
-129 9 0
130 -748 -127 0
-130 748 0
-130 127 0
131 -731 -726 0
-131 731 0
-131 726 0
132 -131 -26 0
-132 131 0
-132 26 0
133 -749 -130 0
-133 749 0
-133 130 0
134 -750 -6 0
-134 750 0
-134 6 0
135 -134 -42 0
-135 134 0
-135 42 0
136 -751 -133 0
-136 751 0
-136 133 0
137 -752 -753 0
-137 752 0
-137 753 0
138 -137 -35 0
-138 137 0
-138 35 0
139 -754 -136 0
-139 754 0
-139 136 0
140 -34 -19 0
-140 34 0
-140 19 0
141 -140 -707 0
-141 140 0
-141 707 0
142 -755 -139 0
-142 755 0
-142 139 0
143 -756 -16 0
-143 756 0
-143 16 0
144 -143 -704 0
-144 143 0
-144 704 0
145 -757 -142 0
-145 757 0
-145 142 0
146 -37 -10 0
-146 37 0
-146 10 0
147 -146 -737 0
-147 146 0
-147 737 0
148 -758 -145 0
-148 758 0
-148 145 0
149 -45 -759 0
-149 45 0
-149 759 0
150 -149 -713 0
-150 149 0
-150 713 0
151 -760 -148 0
-151 760 0
-151 148 0
152 -37 -734 0
-152 37 0
-152 734 0
153 -152 -761 0
-153 152 0
-153 761 0
154 -762 -151 0
-154 762 0
-154 151 0
155 -763 -764 0
-155 763 0
-155 764 0
156 -155 -35 0
-156 155 0
-156 35 0
157 -765 -154 0
-157 765 0
-157 154 0
158 -17 -699 0
-158 17 0
-158 699 0
159 -158 -19 0
-159 158 0
-159 19 0
160 -766 -157 0
-160 766 0
-160 157 0
161 -39 -759 0
-161 39 0
-161 759 0
162 -161 -767 0
-162 161 0
-162 767 0
163 -768 -160 0
-163 768 0
-163 160 0
164 -769 -2 0
-164 769 0
-164 2 0
165 -164 -721 0
-165 164 0
-165 721 0
166 -770 -163 0
-166 770 0
-166 163 0
167 -761 -41 0
-167 761 0
-167 41 0
168 -167 -18 0
-168 167 0
-168 18 0
169 -771 -166 0
-169 771 0
-169 166 0
170 -41 -717 0
-170 41 0
-170 717 0
171 -170 -772 0
-171 170 0
-171 772 0
172 -773 -169 0
-172 773 0
-172 169 0
173 -774 -22 0
-173 774 0
-173 22 0
174 -173 -11 0
-174 173 0
-174 11 0
175 -775 -172 0
-175 775 0
-175 172 0
176 -37 -723 0
-176 37 0
-176 723 0
177 -176 -776 0
-177 176 0
-177 776 0
178 -777 -175 0
-178 777 0
-178 175 0
179 -736 -26 0
-179 736 0
-179 26 0
180 -179 -13 0
-180 179 0
-180 13 0
181 -778 -178 0
-181 778 0
-181 178 0
182 -759 -745 0
-182 759 0
-182 745 0
183 -182 -779 0
-183 182 0
-183 779 0
184 -780 -181 0
-184 780 0
-184 181 0
185 -781 -10 0
-185 781 0
-185 10 0
186 -185 -779 0
-186 185 0
-186 779 0
187 -782 -184 0
-187 782 0
-187 184 0
188 -736 -763 0
-188 736 0
-188 763 0
189 -188 -48 0
-189 188 0
-189 48 0
190 -783 -187 0
-190 783 0
-190 187 0
191 -17 -702 0
-191 17 0
-191 702 0
192 -191 -1 0
-192 191 0
-192 1 0
193 -784 -190 0
-193 784 0
-193 190 0
194 -785 -723 0
-194 785 0
-194 723 0
195 -194 -786 0
-195 194 0
-195 786 0
196 -787 -193 0
-196 787 0
-196 193 0
197 -6 -1 0
-197 6 0
-197 1 0
198 -197 -728 0
-198 197 0
-198 728 0
199 -788 -196 0
-199 788 0
-199 196 0
200 -733 -717 0
-200 733 0
-200 717 0
201 -200 -779 0
-201 200 0
-201 779 0
202 -789 -199 0
-202 789 0
-202 199 0
203 -702 -1 0
-203 702 0
-203 1 0
204 -203 -709 0
-204 203 0
-204 709 0
205 -790 -202 0
-205 790 0
-205 202 0
206 -785 -734 0
-206 785 0
-206 734 0
207 -206 -791 0
-207 206 0
-207 791 0
208 -792 -205 0
-208 792 0
-208 205 0
209 -50 -21 0
-209 50 0
-209 21 0
210 -209 -26 0
-210 209 0
-210 26 0
211 -793 -208 0
-211 793 0
-211 208 0
212 -9 -8 0
-212 9 0
-212 8 0
213 -212 -18 0
-213 212 0
-213 18 0
214 -794 -211 0
-214 794 0
-214 211 0
215 -25 -745 0
-215 25 0
-215 745 0
216 -215 -731 0
-216 215 0
-216 731 0
217 -795 -214 0
-217 795 0
-217 214 0
218 -16 -702 0
-218 16 0
-218 702 0
219 -218 -796 0
-219 218 0
-219 796 0
220 -797 -217 0
-220 797 0
-220 217 0
221 -43 -721 0
-221 43 0
-221 721 0
222 -221 -709 0
-222 221 0
-222 709 0
223 -798 -220 0
-223 798 0
-223 220 0
224 -45 -786 0
-224 45 0
-224 786 0
225 -224 -791 0
-225 224 0
-225 791 0
226 -799 -223 0
-226 799 0
-226 223 0
227 -15 -6 0
-227 15 0
-227 6 0
228 -227 -44 0
-228 227 0
-228 44 0
229 -800 -226 0
-229 800 0
-229 226 0
230 -30 -17 0
-230 30 0
-230 17 0
231 -230 -11 0
-231 230 0
-231 11 0
232 -801 -229 0
-232 801 0
-232 229 0
233 -718 -709 0
-233 718 0
-233 709 0
234 -233 -19 0
-234 233 0
-234 19 0
235 -802 -232 0
-235 802 0
-235 232 0
236 -29 -24 0
-236 29 0
-236 24 0
237 -236 -12 0
-237 236 0
-237 12 0
238 -803 -235 0
-238 803 0
-238 235 0
239 -28 -26 0
-239 28 0
-239 26 0
240 -239 -18 0
-240 239 0
-240 18 0
241 -804 -238 0
-241 804 0
-241 238 0
242 -750 -706 0
-242 750 0
-242 706 0
243 -242 -13 0
-243 242 0
-243 13 0
244 -805 -241 0
-244 805 0
-244 241 0
245 -45 -27 0
-245 45 0
-245 27 0
246 -245 -772 0
-246 245 0
-246 772 0
247 -806 -244 0
-247 806 0
-247 244 0
248 -709 -10 0
-248 709 0
-248 10 0
249 -248 -48 0
-249 248 0
-249 48 0
250 -807 -247 0
-250 807 0
-250 247 0
251 -37 -17 0
-251 37 0
-251 17 0
252 -251 -6 0
-252 251 0
-252 6 0
253 -808 -250 0
-253 808 0
-253 250 0
254 -761 -706 0
-254 761 0
-254 706 0
255 -254 -29 0
-255 254 0
-255 29 0
256 -809 -253 0
-256 809 0
-256 253 0
257 -40 -709 0
-257 40 0
-257 709 0
258 -257 -772 0
-258 257 0
-258 772 0
259 -810 -256 0
-259 810 0
-259 256 0
260 -811 -753 0
-260 811 0
-260 753 0
261 -260 -11 0
-261 260 0
-261 11 0
262 -812 -259 0
-262 812 0
-262 259 0
263 -83 -16 0
-263 83 0
-263 16 0
264 -813 -262 0
-264 813 0
-264 262 0
265 -35 -17 0
-265 35 0
-265 17 0
266 -265 -19 0
-266 265 0
-266 19 0
267 -814 -264 0
-267 814 0
-267 264 0
268 -45 -34 0
-268 45 0
-268 34 0
269 -268 -728 0
-269 268 0
-269 728 0
270 -815 -267 0
-270 815 0
-270 267 0
271 -35 -13 0
-271 35 0
-271 13 0
272 -271 -48 0
-272 271 0
-272 48 0
273 -816 -270 0
-273 816 0
-273 270 0
274 -739 -721 0
-274 739 0
-274 721 0
275 -274 -707 0
-275 274 0
-275 707 0
276 -817 -273 0
-276 817 0
-276 273 0
277 -27 -8 0
-277 27 0
-277 8 0
278 -277 -818 0
-278 277 0
-278 818 0
279 -819 -276 0
-279 819 0
-279 276 0
280 -781 -750 0
-280 781 0
-280 750 0
281 -280 -18 0
-281 280 0
-281 18 0
282 -820 -279 0
-282 820 0
-282 279 0
283 -718 -786 0
-283 718 0
-283 786 0
284 -283 -12 0
-284 283 0
-284 12 0
285 -821 -282 0
-285 821 0
-285 282 0
286 -769 -7 0
-286 769 0
-286 7 0
287 -286 -43 0
-287 286 0
-287 43 0
288 -822 -285 0
-288 822 0
-288 285 0
289 -736 -5 0
-289 736 0
-289 5 0
290 -289 -728 0
-290 289 0
-290 728 0
291 -823 -288 0
-291 823 0
-291 288 0
292 -30 -753 0
-292 30 0
-292 753 0
293 -292 -5 0
-293 292 0
-293 5 0
294 -824 -291 0
-294 824 0
-294 291 0
295 -25 -717 0
-295 25 0
-295 717 0
296 -295 -24 0
-296 295 0
-296 24 0
297 -825 -294 0
-297 825 0
-297 294 0
298 -22 -18 0
-298 22 0
-298 18 0
299 -298 -737 0
-299 298 0
-299 737 0
300 -826 -297 0
-300 826 0
-300 297 0
301 -30 -4 0
-301 30 0
-301 4 0
302 -301 -706 0
-302 301 0
-302 706 0
303 -827 -300 0
-303 827 0
-303 300 0
304 -33 -24 0
-304 33 0
-304 24 0
305 -304 -48 0
-305 304 0
-305 48 0
306 -828 -303 0
-306 828 0
-306 303 0
307 -739 -786 0
-307 739 0
-307 786 0
308 -307 -18 0
-308 307 0
-308 18 0
309 -829 -306 0
-309 829 0
-309 306 0
310 -726 -2 0
-310 726 0
-310 2 0
311 -310 -718 0
-311 310 0
-311 718 0
312 -830 -309 0
-312 830 0
-312 309 0
313 -41 -702 0
-313 41 0
-313 702 0
314 -313 -48 0
-314 313 0
-314 48 0
315 -831 -312 0
-315 831 0
-315 312 0
316 -24 -17 0
-316 24 0
-316 17 0
317 -316 -728 0
-317 316 0
-317 728 0
318 -832 -315 0
-318 832 0
-318 315 0
319 -40 -4 0
-319 40 0
-319 4 0
320 -319 -6 0
-320 319 0
-320 6 0
321 -833 -318 0
-321 833 0
-321 318 0
322 -726 -9 0
-322 726 0
-322 9 0
323 -322 -704 0
-323 322 0
-323 704 0
324 -834 -321 0
-324 834 0
-324 321 0
325 -40 -723 0
-325 40 0
-325 723 0
326 -325 -737 0
-326 325 0
-326 737 0
327 -835 -324 0
-327 835 0
-327 324 0
328 -30 -2 0
-328 30 0
-328 2 0
329 -328 -779 0
-329 328 0
-329 779 0
330 -836 -327 0
-330 836 0
-330 327 0
331 -791 -18 0
-331 791 0
-331 18 0
332 -331 -707 0
-332 331 0
-332 707 0
333 -837 -330 0
-333 837 0
-333 330 0
334 -26 -6 0
-334 26 0
-334 6 0
335 -334 -36 0
-335 334 0
-335 36 0
336 -838 -333 0
-336 838 0
-336 333 0
337 -745 -3 0
-337 745 0
-337 3 0
338 -337 -839 0
-338 337 0
-338 839 0
339 -840 -336 0
-339 840 0
-339 336 0
340 -731 -5 0
-340 731 0
-340 5 0
341 -340 -728 0
-341 340 0
-341 728 0
342 -841 -339 0
-342 841 0
-342 339 0
343 -842 -32 0
-343 842 0
-343 32 0
344 -343 -786 0
-344 343 0
-344 786 0
345 -843 -342 0
-345 843 0
-345 342 0
346 -21 -13 0
-346 21 0
-346 13 0
347 -346 -48 0
-347 346 0
-347 48 0
348 -844 -345 0
-348 844 0
-348 345 0
349 -38 -726 0
-349 38 0
-349 726 0
350 -349 -709 0
-350 349 0
-350 709 0
351 -845 -348 0
-351 845 0
-351 348 0
352 -706 -1 0
-352 706 0
-352 1 0
353 -352 -818 0
-353 352 0
-353 818 0
354 -846 -351 0
-354 846 0
-354 351 0
355 -811 -745 0
-355 811 0
-355 745 0
356 -355 -733 0
-356 355 0
-356 733 0
357 -847 -354 0
-357 847 0
-357 354 0
358 -39 -699 0
-358 39 0
-358 699 0
359 -358 -41 0
-359 358 0
-359 41 0
360 -848 -357 0
-360 848 0
-360 357 0
361 -849 -731 0
-361 849 0
-361 731 0
362 -361 -6 0
-362 361 0
-362 6 0
363 -850 -360 0
-363 850 0
-363 360 0
364 -29 -22 0
-364 29 0
-364 22 0
365 -364 -737 0
-365 364 0
-365 737 0
366 -851 -363 0
-366 851 0
-366 363 0
367 -737 -27 0
-367 737 0
-367 27 0
368 -367 -772 0
-368 367 0
-368 772 0
369 -852 -366 0
-369 852 0
-369 366 0
370 -764 -811 0
-370 764 0
-370 811 0
371 -370 -16 0
-371 370 0
-371 16 0
372 -853 -369 0
-372 853 0
-372 369 0
373 -752 -3 0
-373 752 0
-373 3 0
374 -373 -12 0
-374 373 0
-374 12 0
375 -854 -372 0
-375 854 0
-375 372 0
376 -734 -717 0
-376 734 0
-376 717 0
377 -376 -752 0
-377 376 0
-377 752 0
378 -855 -375 0
-378 855 0
-378 375 0
379 -769 -36 0
-379 769 0
-379 36 0
380 -379 -796 0
-380 379 0
-380 796 0
381 -856 -378 0
-381 856 0
-381 378 0
382 -774 -752 0
-382 774 0
-382 752 0
383 -382 -796 0
-383 382 0
-383 796 0
384 -857 -381 0
-384 857 0
-384 381 0
385 -763 -25 0
-385 763 0
-385 25 0
386 -385 -42 0
-386 385 0
-386 42 0
387 -858 -384 0
-387 858 0
-387 384 0
388 -41 -17 0
-388 41 0
-388 17 0
389 -388 -737 0
-389 388 0
-389 737 0
390 -859 -387 0
-390 859 0
-390 387 0
391 -737 -3 0
-391 737 0
-391 3 0
392 -391 -772 0
-392 391 0
-392 772 0
393 -860 -390 0
-393 860 0
-393 390 0
394 -43 -849 0
-394 43 0
-394 849 0
395 -394 -737 0
-395 394 0
-395 737 0
396 -861 -393 0
-396 861 0
-396 393 0
397 -49 -16 0
-397 49 0
-397 16 0
398 -397 -728 0
-398 397 0
-398 728 0
399 -862 -396 0
-399 862 0
-399 396 0
400 -30 -21 0
-400 30 0
-400 21 0
401 -400 -32 0
-401 400 0
-401 32 0
402 -863 -399 0
-402 863 0
-402 399 0
403 -41 -731 0
-403 41 0
-403 731 0
404 -403 -709 0
-404 403 0
-404 709 0
405 -864 -402 0
-405 864 0
-405 402 0
406 -28 -811 0
-406 28 0
-406 811 0
407 -406 -48 0
-407 406 0
-407 48 0
408 -865 -405 0
-408 865 0
-408 405 0
409 -46 -785 0
-409 46 0
-409 785 0
410 -409 -772 0
-410 409 0
-410 772 0
411 -866 -408 0
-411 866 0
-411 408 0
412 -44 -706 0
-412 44 0
-412 706 0
413 -412 -796 0
-413 412 0
-413 796 0
414 -867 -411 0
-414 867 0
-414 411 0
415 -763 -706 0
-415 763 0
-415 706 0
416 -415 -839 0
-416 415 0
-416 839 0
417 -868 -414 0
-417 868 0
-417 414 0
418 -24 -711 0
-418 24 0
-418 711 0
419 -418 -772 0
-419 418 0
-419 772 0
420 -869 -417 0
-420 869 0
-420 417 0
421 -776 -839 0
-421 776 0
-421 839 0
422 -421 -18 0
-422 421 0
-422 18 0
423 -870 -420 0
-423 870 0
-423 420 0
424 -28 -753 0
-424 28 0
-424 753 0
425 -424 -24 0
-425 424 0
-425 24 0
426 -871 -423 0
-426 871 0
-426 423 0
427 -745 -2 0
-427 745 0
-427 2 0
428 -427 -43 0
-428 427 0
-428 43 0
429 -872 -426 0
-429 872 0
-429 426 0
430 -46 -739 0
-430 46 0
-430 739 0
431 -430 -18 0
-431 430 0
-431 18 0
432 -873 -429 0
-432 873 0
-432 429 0
433 -125 -818 0
-433 125 0
-433 818 0
434 -874 -432 0
-434 874 0
-434 432 0
435 -30 -15 0
-435 30 0
-435 15 0
436 -435 -50 0
-436 435 0
-436 50 0
437 -875 -434 0
-437 875 0
-437 434 0
438 -739 -17 0
-438 739 0
-438 17 0
439 -438 -723 0
-439 438 0
-439 723 0
440 -876 -437 0
-440 876 0
-440 437 0
441 -22 -4 0
-441 22 0
-441 4 0
442 -441 -711 0
-442 441 0
-442 711 0
443 -877 -440 0
-443 877 0
-443 440 0
444 -726 -6 0
-444 726 0
-444 6 0
445 -444 -704 0
-445 444 0
-445 704 0
446 -878 -443 0
-446 878 0
-446 443 0
447 -785 -21 0
-447 785 0
-447 21 0
448 -447 -2 0
-448 447 0
-448 2 0
449 -879 -446 0
-449 879 0
-449 446 0
450 -33 -12 0
-450 33 0
-450 12 0
451 -450 -42 0
-451 450 0
-451 42 0
452 -880 -449 0
-452 880 0
-452 449 0
453 -718 -764 0
-453 718 0
-453 764 0
454 -453 -18 0
-454 453 0
-454 18 0
455 -881 -452 0
-455 881 0
-455 452 0
456 -24 -767 0
-456 24 0
-456 767 0
457 -456 -737 0
-457 456 0
-457 737 0
458 -882 -455 0
-458 882 0
-458 455 0
459 -37 -2 0
-459 37 0
-459 2 0
460 -459 -767 0
-460 459 0
-460 767 0
461 -883 -458 0
-461 883 0
-461 458 0
462 -16 -8 0
-462 16 0
-462 8 0
463 -462 -42 0
-463 462 0
-463 42 0
464 -884 -461 0
-464 884 0
-464 461 0
465 -37 -726 0
-465 37 0
-465 726 0
466 -465 -791 0
-466 465 0
-466 791 0
467 -885 -464 0
-467 885 0
-467 464 0
468 -41 -34 0
-468 41 0
-468 34 0
469 -468 -704 0
-469 468 0
-469 704 0
470 -886 -467 0
-470 886 0
-470 467 0
471 -22 -3 0
-471 22 0
-471 3 0
472 -471 -736 0
-472 471 0
-472 736 0
473 -887 -470 0
-473 887 0
-473 470 0
474 -756 -763 0
-474 756 0
-474 763 0
475 -474 -12 0
-475 474 0
-475 12 0
476 -888 -473 0
-476 888 0
-476 473 0
477 -724 -1 0
-477 724 0
-477 1 0
478 -477 -19 0
-478 477 0
-478 19 0
479 -889 -476 0
-479 889 0
-479 476 0
480 -786 -9 0
-480 786 0
-480 9 0
481 -480 -728 0
-481 480 0
-481 728 0
482 -890 -479 0
-482 890 0
-482 479 0
483 -891 -7 0
-483 891 0
-483 7 0
484 -483 -731 0
-484 483 0
-484 731 0
485 -892 -482 0
-485 892 0
-485 482 0
486 -726 -786 0
-486 726 0
-486 786 0
487 -486 -736 0
-487 486 0
-487 736 0
488 -893 -485 0
-488 893 0
-488 485 0
489 -739 -10 0
-489 739 0
-489 10 0
490 -489 -6 0
-490 489 0
-490 6 0
491 -894 -488 0
-491 894 0
-491 488 0
492 -774 -48 0
-492 774 0
-492 48 0
493 -492 -42 0
-493 492 0
-493 42 0
494 -895 -491 0
-494 895 0
-494 491 0
495 -759 -709 0
-495 759 0
-495 709 0
496 -495 -818 0
-496 495 0
-496 818 0
497 -896 -494 0
-497 896 0
-497 494 0
498 -776 -22 0
-498 776 0
-498 22 0
499 -498 -2 0
-499 498 0
-499 2 0
500 -897 -497 0
-500 897 0
-500 497 0
501 -239 -41 0
-501 239 0
-501 41 0
502 -898 -500 0
-502 898 0
-502 500 0
503 -786 -724 0
-503 786 0
-503 724 0
504 -503 -711 0
-504 503 0
-504 711 0
505 -899 -502 0
-505 899 0
-505 502 0
506 -842 -24 0
-506 842 0
-506 24 0
507 -506 -756 0
-507 506 0
-507 756 0
508 -900 -505 0
-508 900 0
-508 505 0
509 -737 -721 0
-509 737 0
-509 721 0
510 -509 -704 0
-510 509 0
-510 704 0
511 -901 -508 0
-511 901 0
-511 508 0
512 -769 -27 0
-512 769 0
-512 27 0
513 -512 -724 0
-513 512 0
-513 724 0
514 -902 -511 0
-514 902 0
-514 511 0
515 -779 -7 0
-515 779 0
-515 7 0
516 -515 -48 0
-516 515 0
-516 48 0
517 -903 -514 0
-517 903 0
-517 514 0
518 -50 -38 0
-518 50 0
-518 38 0
519 -518 -750 0
-519 518 0
-519 750 0
520 -904 -517 0
-520 904 0
-520 517 0
521 -35 -4 0
-521 35 0
-521 4 0
522 -521 -707 0
-522 521 0
-522 707 0
523 -905 -520 0
-523 905 0
-523 520 0
524 -25 -17 0
-524 25 0
-524 17 0
525 -524 -36 0
-525 524 0
-525 36 0
526 -906 -523 0
-526 906 0
-526 523 0
527 -39 -739 0
-527 39 0
-527 739 0
528 -527 -43 0
-528 527 0
-528 43 0
529 -907 -526 0
-529 907 0
-529 526 0
530 -32 -709 0
-530 32 0
-530 709 0
531 -530 -36 0
-531 530 0
-531 36 0
532 -908 -529 0
-532 908 0
-532 529 0
533 -774 -713 0
-533 774 0
-533 713 0
534 -533 -728 0
-534 533 0
-534 728 0
535 -909 -532 0
-535 909 0
-535 532 0
536 -769 -723 0
-536 769 0
-536 723 0
537 -536 -44 0
-537 536 0
-537 44 0
538 -910 -535 0
-538 910 0
-538 535 0
539 -726 -21 0
-539 726 0
-539 21 0
540 -539 -42 0
-540 539 0
-540 42 0
541 -911 -538 0
-541 911 0
-541 538 0
542 -39 -723 0
-542 39 0
-542 723 0
543 -542 -25 0
-543 542 0
-543 25 0
544 -912 -541 0
-544 912 0
-544 541 0
545 -791 -40 0
-545 791 0
-545 40 0
546 -545 -728 0
-546 545 0
-546 728 0
547 -913 -544 0
-547 913 0
-547 544 0
548 -32 -31 0
-548 32 0
-548 31 0
549 -548 -39 0
-549 548 0
-549 39 0
550 -914 -547 0
-550 914 0
-550 547 0
551 -734 -713 0
-551 734 0
-551 713 0
552 -551 -772 0
-552 551 0
-552 772 0
553 -915 -550 0
-553 915 0
-553 550 0
554 -891 -15 0
-554 891 0
-554 15 0
555 -554 -711 0
-555 554 0
-555 711 0
556 -916 -553 0
-556 916 0
-556 553 0
557 -781 -8 0
-557 781 0
-557 8 0
558 -557 -6 0
-558 557 0
-558 6 0
559 -917 -556 0
-559 917 0
-559 556 0
560 -49 -40 0
-560 49 0
-560 40 0
561 -560 -3 0
-561 560 0
-561 3 0
562 -918 -559 0
-562 918 0
-562 559 0
563 -40 -745 0
-563 40 0
-563 745 0
564 -563 -756 0
-564 563 0
-564 756 0
565 -919 -562 0
-565 919 0
-565 562 0
566 -50 -39 0
-566 50 0
-566 39 0
567 -566 -718 0
-567 566 0
-567 718 0
568 -920 -565 0
-568 920 0
-568 565 0
569 -46 -27 0
-569 46 0
-569 27 0
570 -569 -737 0
-570 569 0
-570 737 0
571 -921 -568 0
-571 921 0
-571 568 0
572 -737 -33 0
-572 737 0
-572 33 0
573 -572 -818 0
-573 572 0
-573 818 0
574 -922 -571 0
-574 922 0
-574 571 0
575 -923 -17 0
-575 923 0
-575 17 0
576 -575 -759 0
-576 575 0
-576 759 0
577 -924 -574 0
-577 924 0
-577 574 0
578 -49 -718 0
-578 49 0
-578 718 0
579 -578 -714 0
-579 578 0
-579 714 0
580 -925 -577 0
-580 925 0
-580 577 0
581 -774 -4 0
-581 774 0
-581 4 0
582 -581 -721 0
-582 581 0
-582 721 0
583 -926 -580 0
-583 926 0
-583 580 0
584 -721 -891 0
-584 721 0
-584 891 0
585 -584 -14 0
-585 584 0
-585 14 0
586 -927 -583 0
-586 927 0
-586 583 0
587 -19 -706 0
-587 19 0
-587 706 0
588 -587 -707 0
-588 587 0
-588 707 0
589 -928 -586 0
-589 928 0
-589 586 0
590 -891 -20 0
-590 891 0
-590 20 0
591 -590 -11 0
-591 590 0
-591 11 0
592 -929 -589 0
-592 929 0
-592 589 0
593 -50 -26 0
-593 50 0
-593 26 0
594 -593 -43 0
-594 593 0
-594 43 0
595 -930 -592 0
-595 930 0
-595 592 0
596 -764 -8 0
-596 764 0
-596 8 0
597 -596 -39 0
-597 596 0
-597 39 0
598 -931 -595 0
-598 931 0
-598 595 0
599 -842 -723 0
-599 842 0
-599 723 0
600 -599 -48 0
-600 599 0
-600 48 0
601 -932 -598 0
-601 932 0
-601 598 0
602 -764 -779 0
-602 764 0
-602 779 0
603 -602 -772 0
-603 602 0
-603 772 0
604 -933 -601 0
-604 933 0
-604 601 0
605 -43 -726 0
-605 43 0
-605 726 0
606 -605 -772 0
-606 605 0
-606 772 0
607 -934 -604 0
-607 934 0
-607 604 0
608 -37 -16 0
-608 37 0
-608 16 0
609 -608 -737 0
-609 608 0
-609 737 0
610 -935 -607 0
-610 935 0
-610 607 0
611 -38 -779 0
-611 38 0
-611 779 0
612 -611 -48 0
-612 611 0
-612 48 0
613 -936 -610 0
-613 936 0
-613 610 0
614 -25 -714 0
-614 25 0
-614 714 0
615 -614 -14 0
-615 614 0
-615 14 0
616 -937 -613 0
-616 937 0
-616 613 0
617 -45 -31 0
-617 45 0
-617 31 0
618 -617 -756 0
-618 617 0
-618 756 0
619 -938 -616 0
-619 938 0
-619 616 0
620 -842 -763 0
-620 842 0
-620 763 0
621 -620 -8 0
-621 620 0
-621 8 0
622 -939 -619 0
-622 939 0
-622 619 0
623 -251 -12 0
-623 251 0
-623 12 0
624 -940 -622 0
-624 940 0
-624 622 0
625 -752 -779 0
-625 752 0
-625 779 0
626 -625 -35 0
-626 625 0
-626 35 0
627 -941 -624 0
-627 941 0
-627 624 0
628 -764 -839 0
-628 764 0
-628 839 0
629 -628 -750 0
-629 628 0
-629 750 0
630 -942 -627 0
-630 942 0
-630 627 0
631 -779 -724 0
-631 779 0
-631 724 0
632 -631 -35 0
-632 631 0
-632 35 0
633 -943 -630 0
-633 943 0
-633 630 0
634 -49 -769 0
-634 49 0
-634 769 0
635 -634 -44 0
-635 634 0
-635 44 0
636 -944 -633 0
-636 944 0
-636 633 0
637 -764 -702 0
-637 764 0
-637 702 0
638 -637 -756 0
-638 637 0
-638 756 0
639 -945 -636 0
-639 945 0
-639 636 0
640 -736 -734 0
-640 736 0
-640 734 0
641 -640 -19 0
-641 640 0
-641 19 0
642 -946 -639 0
-642 946 0
-642 639 0
643 -842 -39 0
-643 842 0
-643 39 0
644 -643 -3 0
-644 643 0
-644 3 0
645 -947 -642 0
-645 947 0
-645 642 0
646 -17 -1 0
-646 17 0
-646 1 0
647 -646 -11 0
-647 646 0
-647 11 0
648 -948 -645 0
-648 948 0
-648 645 0
649 -30 -745 0
-649 30 0
-649 745 0
650 -649 -699 0
-650 649 0
-650 699 0
651 -949 -648 0
-651 949 0
-651 648 0
652 -39 -25 0
-652 39 0
-652 25 0
653 -652 -11 0
-653 652 0
-653 11 0
654 -950 -651 0
-654 950 0
-654 651 0
655 -718 -15 0
-655 718 0
-655 15 0
656 -655 -752 0
-656 655 0
-656 752 0
657 -951 -654 0
-657 951 0
-657 654 0
658 -50 -699 0
-658 50 0
-658 699 0
659 -658 -756 0
-659 658 0
-659 756 0
660 -952 -657 0
-660 952 0
-660 657 0
661 -750 -27 0
-661 750 0
-661 27 0
662 -661 -737 0
-662 661 0
-662 737 0
663 -953 -660 0
-663 953 0
-663 660 0
664 -22 -724 0
-664 22 0
-664 724 0
665 -664 -5 0
-665 664 0
-665 5 0
666 -954 -663 0
-666 954 0
-666 663 0
667 -718 -1 0
-667 718 0
-667 1 0
668 -667 -34 0
-668 667 0
-668 34 0
669 -955 -666 0
-669 955 0
-669 666 0
670 -763 -27 0
-670 763 0
-670 27 0
671 -670 -45 0
-671 670 0
-671 45 0
672 -956 -669 0
-672 956 0
-672 669 0
673 -30 -702 0
-673 30 0
-673 702 0
674 -673 -839 0
-674 673 0
-674 839 0
675 -957 -672 0
-675 957 0
-675 672 0
676 -39 -745 0
-676 39 0
-676 745 0
677 -676 -791 0
-677 676 0
-677 791 0
678 -958 -675 0
-678 958 0
-678 675 0
679 -734 -23 0
-679 734 0
-679 23 0
680 -679 -12 0
-680 679 0
-680 12 0
681 -959 -678 0
-681 959 0
-681 678 0
682 -50 -785 0
-682 50 0
-682 785 0
683 -682 -818 0
-683 682 0
-683 818 0
684 -960 -681 0
-684 960 0
-684 681 0
685 -726 -764 0
-685 726 0
-685 764 0
686 -685 -818 0
-686 685 0
-686 818 0
687 -961 -684 0
-687 961 0
-687 684 0
688 -750 -25 0
-688 750 0
-688 25 0
689 -688 -772 0
-689 688 0
-689 772 0
690 -962 -687 0
-690 962 0
-690 687 0
691 -682 -767 0
-691 682 0
-691 767 0
692 -963 -690 0
-692 963 0
-692 690 0
693 -46 -750 0
-693 46 0
-693 750 0
694 -693 -6 0
-694 693 0
-694 6 0
695 -964 -692 0
-695 964 0
-695 692 0
696 -761 -7 0
-696 761 0
-696 7 0
697 -696 -839 0
-697 696 0
-697 839 0
698 -965 -695 0
-698 965 0
-698 695 0
-699 -1 0
699 1 0
-700 -54 0
700 54 0
-701 -52 0
701 52 0
-702 -8 0
702 8 0
-703 -57 0
703 57 0
-704 -12 0
704 12 0
-705 -60 0
705 60 0
-706 -2 0
706 2 0
-707 -14 0
707 14 0
-708 -63 0
708 63 0
-709 -16 0
709 16 0
-710 -66 0
710 66 0
-711 -18 0
711 18 0
-712 -69 0
712 69 0
-713 -3 0
713 3 0
-714 -13 0
714 13 0
-715 -72 0
715 72 0
-716 -75 0
716 75 0
-717 -23 0
717 23 0
-718 -24 0
718 24 0
-719 -78 0
719 78 0
-720 -81 0
720 81 0
-721 -26 0
721 26 0
-722 -84 0
722 84 0
-723 -4 0
723 4 0
-724 -9 0
724 9 0
-725 -87 0
725 87 0
-726 -28 0
726 28 0
-727 -90 0
727 90 0
-728 -19 0
728 19 0
-729 -93 0
729 93 0
-730 -96 0
730 96 0
-731 -33 0
731 33 0
-732 -99 0
732 99 0
-733 -31 0
733 31 0
-734 -30 0
734 30 0
-735 -102 0
735 102 0
-736 -35 0
736 35 0
-737 -36 0
737 36 0
-738 -105 0
738 105 0
-739 -37 0
739 37 0
-740 -108 0
740 108 0
-741 -111 0
741 111 0
-742 -114 0
742 114 0
-743 -117 0
743 117 0
-744 -120 0
744 120 0
-745 -7 0
745 7 0
-746 -123 0
746 123 0
-747 -126 0
747 126 0
-748 -129 0
748 129 0
-749 -132 0
749 132 0
-750 -29 0
750 29 0
-751 -135 0
751 135 0
-752 -43 0
752 43 0
-753 -15 0
753 15 0
-754 -138 0
754 138 0
-755 -141 0
755 141 0
-756 -44 0
756 44 0
-757 -144 0
757 144 0
-758 -147 0
758 147 0
-759 -22 0
759 22 0
-760 -150 0
760 150 0
-761 -46 0
761 46 0
-762 -153 0
762 153 0
-763 -32 0
763 32 0
-764 -20 0
764 20 0
-765 -156 0
765 156 0
-766 -159 0
766 159 0
-767 -6 0
767 6 0
-768 -162 0
768 162 0
-769 -47 0
769 47 0
-770 -165 0
770 165 0
-771 -168 0
771 168 0
-772 -48 0
772 48 0
-773 -171 0
773 171 0
-774 -49 0
774 49 0
-775 -174 0
775 174 0
-776 -45 0
776 45 0
-777 -177 0
777 177 0
-778 -180 0
778 180 0
-779 -11 0
779 11 0
-780 -183 0
780 183 0
-781 -50 0
781 50 0
-782 -186 0
782 186 0
-783 -189 0
783 189 0
-784 -192 0
784 192 0
-785 -39 0
785 39 0
-786 -10 0
786 10 0
-787 -195 0
787 195 0
-788 -198 0
788 198 0
-789 -201 0
789 201 0
-790 -204 0
790 204 0
-791 -41 0
791 41 0
-792 -207 0
792 207 0
-793 -210 0
793 210 0
-794 -213 0
794 213 0
-795 -216 0
795 216 0
-796 -42 0
796 42 0
-797 -219 0
797 219 0
-798 -222 0
798 222 0
-799 -225 0
799 225 0
-800 -228 0
800 228 0
-801 -231 0
801 231 0
-802 -234 0
802 234 0
-803 -237 0
803 237 0
-804 -240 0
804 240 0
-805 -243 0
805 243 0
-806 -246 0
806 246 0
-807 -249 0
807 249 0
-808 -252 0
808 252 0
-809 -255 0
809 255 0
-810 -258 0
810 258 0
-811 -17 0
811 17 0
-812 -261 0
812 261 0
-813 -263 0
813 263 0
-814 -266 0
814 266 0
-815 -269 0
815 269 0
-816 -272 0
816 272 0
-817 -275 0
817 275 0
-818 -34 0
818 34 0
-819 -278 0
819 278 0
-820 -281 0
820 281 0
-821 -284 0
821 284 0
-822 -287 0
822 287 0
-823 -290 0
823 290 0
-824 -293 0
824 293 0
-825 -296 0
825 296 0
-826 -299 0
826 299 0
-827 -302 0
827 302 0
-828 -305 0
828 305 0
-829 -308 0
829 308 0
-830 -311 0
830 311 0
-831 -314 0
831 314 0
-832 -317 0
832 317 0
-833 -320 0
833 320 0
-834 -323 0
834 323 0
-835 -326 0
835 326 0
-836 -329 0
836 329 0
-837 -332 0
837 332 0
-838 -335 0
838 335 0
-839 -5 0
839 5 0
-840 -338 0
840 338 0
-841 -341 0
841 341 0
-842 -40 0
842 40 0
-843 -344 0
843 344 0
-844 -347 0
844 347 0
-845 -350 0
845 350 0
-846 -353 0
846 353 0
-847 -356 0
847 356 0
-848 -359 0
848 359 0
-849 -38 0
849 38 0
-850 -362 0
850 362 0
-851 -365 0
851 365 0
-852 -368 0
852 368 0
-853 -371 0
853 371 0
-854 -374 0
854 374 0
-855 -377 0
855 377 0
-856 -380 0
856 380 0
-857 -383 0
857 383 0
-858 -386 0
858 386 0
-859 -389 0
859 389 0
-860 -392 0
860 392 0
-861 -395 0
861 395 0
-862 -398 0
862 398 0
-863 -401 0
863 401 0
-864 -404 0
864 404 0
-865 -407 0
865 407 0
-866 -410 0
866 410 0
-867 -413 0
867 413 0
-868 -416 0
868 416 0
-869 -419 0
869 419 0
-870 -422 0
870 422 0
-871 -425 0
871 425 0
-872 -428 0
872 428 0
-873 -431 0
873 431 0
-874 -433 0
874 433 0
-875 -436 0
875 436 0
-876 -439 0
876 439 0
-877 -442 0
877 442 0
-878 -445 0
878 445 0
-879 -448 0
879 448 0
-880 -451 0
880 451 0
-881 -454 0
881 454 0
-882 -457 0
882 457 0
-883 -460 0
883 460 0
-884 -463 0
884 463 0
-885 -466 0
885 466 0
-886 -469 0
886 469 0
-887 -472 0
887 472 0
-888 -475 0
888 475 0
-889 -478 0
889 478 0
-890 -481 0
890 481 0
-891 -25 0
891 25 0
-892 -484 0
892 484 0
-893 -487 0
893 487 0
-894 -490 0
894 490 0
-895 -493 0
895 493 0
-896 -496 0
896 496 0
-897 -499 0
897 499 0
-898 -501 0
898 501 0
-899 -504 0
899 504 0
-900 -507 0
900 507 0
-901 -510 0
901 510 0
-902 -513 0
902 513 0
-903 -516 0
903 516 0
-904 -519 0
904 519 0
-905 -522 0
905 522 0
-906 -525 0
906 525 0
-907 -528 0
907 528 0
-908 -531 0
908 531 0
-909 -534 0
909 534 0
-910 -537 0
910 537 0
-911 -540 0
911 540 0
-912 -543 0
912 543 0
-913 -546 0
913 546 0
-914 -549 0
914 549 0
-915 -552 0
915 552 0
-916 -555 0
916 555 0
-917 -558 0
917 558 0
-918 -561 0
918 561 0
-919 -564 0
919 564 0
-920 -567 0
920 567 0
-921 -570 0
921 570 0
-922 -573 0
922 573 0
-923 -21 0
923 21 0
-924 -576 0
924 576 0
-925 -579 0
925 579 0
-926 -582 0
926 582 0
-927 -585 0
927 585 0
-928 -588 0
928 588 0
-929 -591 0
929 591 0
-930 -594 0
930 594 0
-931 -597 0
931 597 0
-932 -600 0
932 600 0
-933 -603 0
933 603 0
-934 -606 0
934 606 0
-935 -609 0
935 609 0
-936 -612 0
936 612 0
-937 -615 0
937 615 0
-938 -618 0
938 618 0
-939 -621 0
939 621 0
-940 -623 0
940 623 0
-941 -626 0
941 626 0
-942 -629 0
942 629 0
-943 -632 0
943 632 0
-944 -635 0
944 635 0
-945 -638 0
945 638 0
-946 -641 0
946 641 0
-947 -644 0
947 644 0
-948 -647 0
948 647 0
-949 -650 0
949 650 0
-950 -653 0
950 653 0
-951 -656 0
951 656 0
-952 -659 0
952 659 0
-953 -662 0
953 662 0
-954 -665 0
954 665 0
-955 -668 0
955 668 0
-956 -671 0
956 671 0
-957 -674 0
957 674 0
-958 -677 0
958 677 0
-959 -680 0
959 680 0
-960 -683 0
960 683 0
-961 -686 0
961 686 0
-962 -689 0
962 689 0
-963 -691 0
963 691 0
-964 -694 0
964 694 0
-965 -697 0
965 697 0
698 0
